50, 11510
678, 678
785, 783
521, 519
512, 510
394, 393
997, 996
290, 288
149, 147
262, 261
261, 261
328, 327
268, 267
108, 108
326, 324
312, 312
570, 570
202, 201
71, 69
203, 201
543, 543
389, 387
734, 732
804, 804
415, 414
100, 99
728, 726
756, 756
397, 396
659, 657
300, 300
915, 915
834, 834
792, 792
954, 954
233, 231
546, 546
732, 732
802, 801
391, 390
139, 138
627, 627
105, 105
706, 705
7, 6
455, 453
480, 480
120, 120
481, 480
501, 501
370, 369
